c --- [ banner ] -------------------------------------------------------------
c 
c CaDiCaL Radically Simplified CDCL SAT Solver
c Copyright (c) 2016-2021 A. Biere, M. Fleury, N. Froleyks
c 
c Version 1.5.2 a5f15211db36c3956764e18194dd5bd63bf3b5e6
c g++ (GCC) 9.3.0 -Wall -Wextra -O3 -DNDEBUG
c Fri Oct 21 01:27:37 EDT 2022 Linux gra-login3 3.10.0-1160.66.1.el7.x86_64 x86_64
c 
c --- [ limit ] --------------------------------------------------------------
c 
c setting conflict limit to 200000 conflicts (due to '200000')
c 
c --- [ parsing input ] ------------------------------------------------------
c 
c reading DIMACS file from '33.cubes5369.adj'
c opening file to read '33.cubes5369.adj'
c found 'p cnf 6160 1595482' header
c parsed 1595482 clauses in 19.23 seconds process time
c closing file '33.cubes5369.adj'
c after reading 1457566822 bytes 1390.0 MB
c 
c --- [ options ] ------------------------------------------------------------
c 
c all options are set to their default value
c 
c --- [ solving ] ------------------------------------------------------------
c 
c time measured in process time since initialization
c 
c  seconds    reductions  redundant   irredundant
c          MB     restarts       trail       variables
c            level   conflicts       glue         remaining
c 
c * 19.23 1382  0 0   0    0    0  0% 0 1595422 2306 37%
c { 20.34 1425  0 0   0    0    0  0% 0 1595422 2306 37%
c i 20.59 1430 1163 0   0    5    4 36% 1 1595422 2295 37%
c i 23.77 1492 490 0  12  109  101 29% 5 1595422 2271 37%
c i 23.80 1492 482 0  12  111  102 29% 6 1595422 2270 37%
c i 26.16 1507 271 0  39  206  162 27% 12 1595422 2269 37%
c i 26.69 1509 258 0  44  227  182 27% 15 1595422 2268 37%
c i 27.10 1512 248 0  49  244  198 27% 17 1595422 2267 37%
c i 27.56 1514 221 0  60  290  234 27% 21 1595422 2266 37%
c i 27.60 1514 218 0  61  295  238 27% 22 1595422 2265 37%
c - 31.27 1388 215 1  63  300  243 28% 22 215019 2265 37%
c i 31.97 1388 195 1  75  352  282 27% 23 215019 2264 37%
c i 32.17 1388 185 1  82  383  308 27% 24 215019 2263 37%
c i 32.31 1388 183 1  85  392  315 27% 24 215019 2262 37%
c i 32.74 1388 175 1  92  424  344 27% 24 215019 2261 37%
c i 33.23 1388 164 1  99  475  390 27% 25 215019 2260 37%
c i 33.29 1388 162 1  99  483  397 27% 24 215019 2259 37%
c i 33.50 1388 154 1 101  529  438 28% 24 215019 2258 37%
c i 33.53 1388 153 1 101  534  441 28% 24 215019 2257 37%
c i 33.70 1388 137 1 110  629  516 28% 25 215019 2256 37%
c 
c  seconds     reductions  redundant   irredundant
c          MB      restarts       trail       variables
c             level   conflicts       glue         remaining
c 
c i 33.76 1388 123 1 112  733  596 28% 25 215019 2255 37%
c i 33.78 1388 118 1 112  782  629 28% 24 215019 2254 37%
c i 33.83 1388 103 1 112  927  726 29% 23 215019 2253 37%
c i 33.83 1388 101 1 112  944  739 29% 23 215019 2252 37%
c } 33.85 1388 96 1 112 1002  783 29% 22 215019 2252 37%
c [ 33.85 1388  0 1 112 1002  783  0% 0 215019 2252 37%
c O 33.86 1388  6 1 112 1003  784 18% 6 215019 2252 37%
c i 34.00 1388 12 1 112 1019  795 26% 9 215019 2251 37%
c i 34.02 1388 14 1 112 1025  800 27% 11 215019 2250 37%
c i 34.03 1388 14 1 112 1029  802 28% 12 215019 2249 37%
c i 34.03 1388 14 1 112 1030  802 28% 11 215019 2248 36%
c i 34.10 1388 18 1 112 1079  841 30% 15 215019 2247 36%
c i 34.10 1388 18 1 112 1080  841 30% 15 215019 2246 36%
c i 34.11 1388 18 1 112 1090  849 30% 16 215019 2245 36%
c - 34.52 1439 19 2 112 1101  778 31% 16 214964 2245 36%
c i 34.70 1439 20 2 112 1273  885 31% 17 214964 2244 36%
c i 34.74 1439 20 2 112 1363  948 31% 17 214964 2243 36%
c i 34.75 1439 20 2 112 1403  973 32% 17 214964 2242 36%
c i 34.77 1439 20 2 112 1440  990 32% 17 214964 2241 36%
c i 34.78 1439 20 2 112 1480 1013 32% 17 214964 2240 36%
c 
c  seconds    reductions  redundant   irredundant
c          MB     restarts       trail       variables
c            level   conflicts       glue         remaining
c 
c i 34.81 1439 20 2 112 1568 1071 32% 17 214964 2239 36%
c i 34.82 1439 20 2 112 1586 1082 32% 17 214964 2238 36%
c - 35.39 1438 25 3 113 2300 1227 31% 20 214943 2238 36%
c ] 35.88 1438 23 3 113 3008 1697 51% 19 214943 2238 36%
c { 35.89 1438 96 3 113 3008 1697 79% 22 214943 2238 36%
c F 35.94 1438 96 3 113 3009 1698 79% 22 214943 2238 36%
c i 36.22 1438 89 3 113 3103 1775 76% 21 214943 2237 36%
c i 36.57 1438 89 3 118 3169 1827 74% 21 214943 2236 36%
c i 37.03 1438 89 3 126 3241 1891 72% 21 214943 2235 36%
c i 37.32 1438 86 3 145 3333 1966 70% 22 214943 2234 36%
c i 37.36 1438 83 3 145 3394 2015 69% 22 214943 2233 36%
c i 37.69 1438 70 3 168 3843 2348 64% 21 214943 2232 36%
c i 38.01 1438 70 3 173 3862 2364 64% 21 214943 2231 36%
c - 38.67 1348 70 4 183 3899 1790 63% 21 214924 2231 36%
c i 38.77 1348 70 4 184 3913 1801 63% 21 214924 2230 36%
c i 38.91 1348 70 4 192 3957 1833 63% 22 214924 2229 36%
c i 38.96 1348 69 4 197 3989 1860 62% 21 214924 2228 36%
c i 38.97 1348 69 4 197 3991 1861 62% 21 214924 2227 36%
c i 39.30 1348 62 4 206 4438 2211 60% 21 214924 2226 36%
c i 39.32 1348 62 4 206 4465 2233 60% 21 214924 2225 36%
c 
c  seconds    reductions  redundant   irredundant
c          MB     restarts       trail       variables
c            level   conflicts       glue         remaining
c 
c i 39.34 1348 61 4 206 4489 2254 60% 21 214924 2224 36%
c i 39.68 1348 62 4 222 4621 2361 59% 21 214924 2223 36%
c i 39.74 1348 61 4 224 4626 2365 59% 21 214924 2222 36%
c d 41.13 1348 59 4 270 5000 2645 57% 21 214874 2210 36%
c 3 41.15 1348 59 4 270 5000 3690 57% 21 214874 2210 36%
c 2 41.20 1348 59 4 270 5000 3842 57% 21 214863 2209 36%
c p 45.29 1348 59 4 270 5000 7665 57% 21 214863 2168 35%
c d 45.64 1348 59 4 270 5000 7488 57% 21 214734 2164 35%
c - 46.51 1348 51 5 276 5897 2417 55% 20 214734 2164 35%
c # 46.56 1348 50 5 276 6012 2505 55% 20 214734 2164 35%
c } 47.03 1348 44 5 287 7009 3195 54% 20 214734 2164 35%
c [ 47.03 1348 23 5 287 7009 3195 51% 19 214734 2164 35%
c - 47.59 1350 21 6 288 8294 2677 52% 18 214734 2164 35%
c ] 47.92 1350 21 6 289 9313 3306 52% 17 214734 2164 35%
c 1 47.92 1350 21 6 289 9313 3306 52% 17 214734 2164 35%
c 
c --- [ writing output ] -----------------------------------------------------
c 
c writing simplified CNF to DIMACS file 'simp/33.cubes5369.adj.simp1'
c * 47.92 1350 21 6 289 9313 3306 52% 17 214734 2164 35%
c opening file to write 'simp/33.cubes5369.adj.simp1'
c writing 'p cnf 6160 214734' header
c closing file 'simp/33.cubes5369.adj.simp1'
c after writing 94530569 bytes 90.2 MB
c wrote 214734 clauses in 0.85 seconds process time
c 
c --- [ writing extension ] --------------------------------------------------
c 
c writing extension stack to 'simp/33.cubes5369.adj.ext1'
c opening file to write 'simp/33.cubes5369.adj.ext1'
c closing file 'simp/33.cubes5369.adj.ext1'
c after writing 13014 bytes 0.0 MB
c wrote 868 witnesses in 0.00 seconds process time
c 
c --- [ result ] -------------------------------------------------------------
c 
s SATISFIABLE
c 
c --- [ run-time profiling ] -------------------------------------------------
c 
c process time taken by individual solving procedures
c (percentage relative to process time for solving)
c 
c        23.78   82.92% search
c        19.76   68.89% unstable
c        19.23   67.04% parse
c         4.90   17.08% simplify
c         4.09   14.25% probe
c         2.92   10.17% stable
c         1.10    3.85% lucky
c         0.04    0.13% ternary
c   =================================
c        28.68   58.82% solve
c 
c last line shows process time for solving
c (percentage relative to total process time)
c 
c --- [ statistics ] ---------------------------------------------------------
c 
c chronological:              2127        22.84 %  of conflicts
c conflicts:                  9313       324.67    per second
c decisions:                 35201      1227.19    per second
c fixed:                       836        13.57 %  of all variables
c learned:                    9107        97.79 %  per conflict
c learned_lits:            1639935       100.00 %  learned literals
c minimized:                     0         0.00 %  learned literals
c shrunken:                1032405        62.95 %  learned literals
c minishrunken:             137308         8.37 %  learned literals
c propagations:            1408913         0.05 M  per second
c reduced:                    3125        33.56 %  per conflict
c rephased:                      3      3104.33    interval
c restarts:                    289        32.22    interval
c stabilizing:                   2        46.28 %  of conflicts
c substituted:                  16         0.26 %  of all variables
c subsumed:                   2685         0.08 %  of all clauses
c ternary:                    1211         0.66 %  of resolved
c weakened:                     32         2.00    average size
c 
c seconds are measured in process time for solving
c 
c --- [ resources ] ----------------------------------------------------------
c 
c total process time since initialization:        48.76    seconds
c total real time since initialization:           49.96    seconds
c maximum resident set size of process:         1529.17    MB
c 
c --- [ shutting down ] ------------------------------------------------------
c 
c exit 10
WARNING! DIMACS header mismatch: wrong number of variables.
============================[ Problem Statistics ]=============================
|                                                                             |
|  Number of variables:          6120                                         |
|  Number of clauses:          214738                                         |
|  Parse time:                   1.24 s                                       |
|  Simplification time:          0.04 s                                       |
|                                                                             |
============================[ Search Statistics ]====================================================
| Conflicts |          ORIGINAL         |          LEARNT          | Num Sols |      SUBGRAPHS      |
|           |    Vars  Clauses Literals |    Limit  Clauses Lit/Cl |          | Canonical Noncanon. |
=====================================================================================================
|       103 |    6027   214741 20401192 |     2000      103     97 |        0 |        22         3 |
|       258 |    6027   214746 20401283 |     2000      258    105 |        0 |        25         8 |
|       485 |    6027   214748 20401371 |     2000      485    106 |        0 |        34        10 |
|       841 |    6027   214767 20401772 |     2000      841     99 |        0 |        47        29 |
|      1361 |    6027   214781 20401977 |     2000     1361    101 |        0 |        58        43 |
|      2146 |    6027   214807 20402508 |     3600     1146     68 |        0 |        77        69 |
|      3304 |    6027   214826 20403180 |     3600     2304     96 |        0 |        87        88 |
|      5080 |    6027   214894 20404649 |     5001     2281     71 |        0 |       113       156 |
|      7700 |    6027   214952 20405735 |     5001     4901     84 |        0 |       143       214 |
|     11615 |    6027   215023 20407117 |     7559     3174     44 |        0 |       187       285 |
|     17511 |    6027   215153 20409238 |     8783     5294     58 |        0 |       245       415 |
|     26248 |    6027   215241 20411346 |     9993     9641     69 |        0 |       291       503 |
|     39417 |    6027   215436 20415418 |    12404    12221     66 |        0 |       497       698 |
|     60133 |    6027   216691 20435504 |    16004    12537     52 |        0 |      1077      1953 |
|     89734 |    6027   217100 20442693 |    19607    16341     58 |        0 |      1226      2362 |
|    133975 |    6027   217552 20451609 |    24409    17784     52 |        0 |      1428      2814 |
|    201957 |    6027   219850 20486170 |    30415    18772     40 |        0 |      1973      5112 |
|    301179 |    6027   220546 20499591 |    36422    36001     65 |        0 |      2235      5808 |
|    450674 |    6027   222252 20531638 |    46015    23089     30 |        0 |      2693      7514 |
|    673985 |    6027   223880 20570134 |    55625    45610     59 |        0 |      3272      9142 |
|   1009057 |    6027   226427 20626534 |    68815    41872     45 |        0 |      4170     11689 |
|   1510643 |    6027   229225 20684890 |    84421    49464     36 |        0 |      4965     14487 |
=====================================================================================================
Number of solutions   : 0
Canonical subgraphs   : 5364           (8 /sec)
          order  3    : 1              (125000 /sec)
          order  4    : 1              (250000 /sec)
          order  5    : 1              (142857 /sec)
          order  6    : 1              (31250 /sec)
          order  7    : 1              (5128 /sec)
          order  8    : 2              (952 /sec)
          order  9    : 7              (334 /sec)
          order 10    : 31             (111 /sec)
          order 11    : 154            (39 /sec)
          order 12    : 679            (12 /sec)
          order 13    : 476            (3 /sec)
          order 14    : 2378           (8 /sec)
          order 15    : 1404           (9 /sec)
          order 16    : 64             (9 /sec)
          order 17    : 68             (8 /sec)
          order 18    : 55             (7 /sec)
          order 19    : 24             (7 /sec)
          order 20    : 9              (7 /sec)
          order 21    : 8              (7 /sec)
          order 22    : 0              (-nan /sec)
Noncanonical subgraphs: 15717          (403 /sec)
          order  3    : 0              (-nan /sec)
          order  4    : 0              (-nan /sec)
          order  5    : 0              (-nan /sec)
          order  6    : 0              (-nan /sec)
          order  7    : 0              (-nan /sec)
          order  8    : 0              (-nan /sec)
          order  9    : 0              (-nan /sec)
          order 10    : 0              (-nan /sec)
          order 11    : 0              (-nan /sec)
          order 12    : 0              (-nan /sec)
          order 13    : 2156           (4486 /sec)
          order 14    : 6787           (3165 /sec)
          order 15    : 4375           (550 /sec)
          order 16    : 2379           (88 /sec)
          order 17    : 7              (107 /sec)
          order 18    : 5              (42 /sec)
          order 19    : 0              (-nan /sec)
          order 20    : 0              (-nan /sec)
          order 21    : 0              (-nan /sec)
Canonicity checking   : 701.692 s
Noncanonicity checking: 39.0457 s
Total canonicity time : 740.738 s
database reductions   : 69
restarts              : 3067
conflicts             : 1549522        (985 /sec)
decisions             : 1971556        (0.00 % random) (1253 /sec)
propagations          : 175403246      (111445 /sec)
conflict literals     : 146702939      (58.65 % deleted)
actual reward         : 0.113057
Memory used           : 296.00 MB
CPU time              : 1573.9 s

UNSATISFIABLE
